benchmarks_CP/INST_49x49/40/inst49x49_40_65.dzn
S=7;
start=[|
-1,	-1,	20,	-1,	40,	-1,	-1,	8,	-1,	-1,	-1,	17,	-1,	-1,	-1,	-1,	-1,	-1,	46,	-1,	-1,	-1,	43,	-1,	16,	18,	3,	-1,	-1,	-1,	-1,	-1,	10,	-1,	36,	23,	33,	-1,	-1,	24,	-1,	44,	-1,	-1,	-1,	-1,	-1,	35,	-1|
26,	41,	14,	-1,	36,	-1,	-1,	-1,	-1,	-1,	-1,	-1,	-1,	-1,	-1,	-1,	-1,	-1,	-1,	-1,	23,	-1,	12,	35,	-1,	-1,	28,	6,	-1,	-1,	-1,	-1,	-1,	-1,	-1,	-1,	5,	-1,	15,	-1,	45,	-1,	-1,	-1,	-1,	-1,	24,	-1,	-1|
-1,	9,	3,	45,	2,	42,	31,	-1,	14,	-1,	36,	38,	-1,	-1,	-1,	32,	-1,	24,	-1,	-1,	12,	-1,	-1,	47,	19,	7,	-1,	-1,	-1,	-1,	43,	-1,	-1,	-1,	-1,	-1,	13,	-1,	-1,	41,	34,	-1,	21,	22,	-1,	10,	28,	-1,	-1|
-1,	39,	-1,	-1,	-1,	13,	-1,	47,	-1,	20,	32,	-1,	-1,	-1,	-1,	-1,	49,	-1,	15,	44,	35,	36,	-1,	-1,	-1,	21,	-1,	-1,	-1,	41,	-1,	6,	-1,	37,	2,	-1,	3,	42,	46,	-1,	-1,	10,	19,	-1,	-1,	4,	-1,	-1,	40|
19,	-1,	-1,	11,	-1,	-1,	21,	-1,	-1,	30,	-1,	25,	-1,	40,	26,	5,	-1,	-1,	-1,	1,	6,	34,	-1,	-1,	49,	10,	-1,	-1,	24,	-1,	-1,	42,	-1,	3,	16,	-1,	12,	4,	8,	32,	17,	-1,	-1,	27,	-1,	43,	-1,	23,	-1|
-1,	18,	-1,	-1,	32,	-1,	-1,	11,	-1,	-1,	-1,	-1,	24,	-1,	-1,	41,	14,	-1,	-1,	-1,	-1,	26,	-1,	4,	-1,	45,	-1,	-1,	-1,	-1,	1,	-1,	-1,	-1,	12,	39,	2,	28,	-1,	-1,	-1,	49,	42,	-1,	46,	34,	-1,	15,	31|
17,	-1,	-1,	12,	-1,	-1,	1,	-1,	10,	-1,	-1,	6,	4,	21,	-1,	-1,	-1,	-1,	-1,	-1,	-1,	-1,	-1,	44,	32,	-1,	-1,	-1,	-1,	-1,	30,	-1,	13,	-1,	-1,	-1,	-1,	29,	-1,	-1,	-1,	19,	-1,	2,	-1,	48,	-1,	-1,	25|
8,	-1,	29,	-1,	17,	-1,	-1,	-1,	-1,	46,	28,	-1,	-1,	-1,	-1,	-1,	-1,	16,	48,	37,	-1,	-1,	40,	22,	-1,	31,	-1,	14,	-1,	43,	-1,	7,	6,	35,	26,	1,	32,	-1,	-1,	-1,	-1,	-1,	-1,	10,	-1,	-1,	2,	-1,	-1|
-1,	-1,	-1,	-1,	-1,	-1,	26,	-1,	11,	-1,	-1,	22,	-1,	42,	36,	-1,	-1,	-1,	-1,	21,	43,	12,	-1,	-1,	30,	44,	-1,	-1,	-1,	-1,	-1,	-1,	-1,	8,	3,	-1,	-1,	-1,	-1,	-1,	40,	20,	-1,	14,	-1,	-1,	9,	-1,	16|
13,	23,	-1,	15,	-1,	39,	-1,	-1,	6,	26,	37,	-1,	-1,	-1,	-1,	-1,	34,	-1,	41,	10,	-1,	-1,	-1,	-1,	-1,	11,	9,	-1,	-1,	-1,	-1,	-1,	27,	42,	-1,	-1,	-1,	-1,	-1,	-1,	-1,	-1,	48,	24,	-1,	32,	-1,	-1,	-1|
-1,	-1,	38,	-1,	-1,	11,	-1,	-1,	24,	-1,	-1,	40,	9,	32,	3,	7,	17,	-1,	45,	-1,	-1,	43,	-1,	-1,	-1,	-1,	-1,	-1,	-1,	19,	-1,	29,	39,	-1,	41,	-1,	-1,	12,	5,	-1,	15,	-1,	-1,	21,	34,	1,	22,	-1,	-1|
-1,	-1,	-1,	27,	30,	41,	43,	21,	-1,	13,	-1,	7,	-1,	18,	-1,	35,	4,	-1,	-1,	31,	-1,	-1,	-1,	15,	-1,	25,	47,	-1,	14,	-1,	-1,	-1,	-1,	-1,	10,	34,	17,	-1,	2,	-1,	-1,	-1,	-1,	-1,	6,	-1,	26,	39,	-1|
31,	7,	-1,	18,	-1,	-1,	-1,	10,	-1,	39,	-1,	16,	43,	-1,	-1,	-1,	47,	-1,	22,	-1,	32,	-1,	-1,	19,	-1,	-1,	-1,	-1,	11,	-1,	-1,	38,	24,	-1,	9,	-1,	-1,	-1,	-1,	-1,	36,	23,	-1,	17,	-1,	25,	-1,	33,	-1|
10,	6,	-1,	-1,	-1,	-1,	-1,	17,	33,	-1,	-1,	23,	-1,	-1,	14,	-1,	-1,	5,	20,	-1,	9,	-1,	-1,	7,	-1,	-1,	-1,	-1,	-1,	-1,	15,	-1,	-1,	-1,	-1,	-1,	44,	-1,	41,	26,	-1,	-1,	47,	-1,	-1,	-1,	-1,	-1,	-1|
29,	38,	-1,	3,	9,	-1,	7,	14,	28,	-1,	-1,	15,	2,	-1,	44,	-1,	36,	-1,	6,	5,	1,	13,	-1,	39,	22,	-1,	32,	12,	-1,	31,	-1,	-1,	-1,	10,	47,	17,	-1,	-1,	-1,	-1,	-1,	46,	-1,	-1,	-1,	37,	8,	-1,	-1|
-1,	17,	49,	-1,	28,	20,	-1,	16,	-1,	-1,	-1,	48,	-1,	6,	-1,	-1,	-1,	-1,	-1,	-1,	-1,	5,	-1,	34,	7,	-1,	-1,	18,	8,	-1,	36,	14,	4,	-1,	-1,	-1,	23,	-1,	-1,	-1,	13,	-1,	3,	29,	25,	-1,	1,	-1,	21|
14,	10,	-1,	30,	-1,	-1,	-1,	-1,	40,	-1,	-1,	8,	-1,	-1,	29,	-1,	-1,	-1,	2,	35,	17,	-1,	-1,	24,	-1,	-1,	38,	26,	22,	-1,	-1,	-1,	-1,	-1,	-1,	-1,	-1,	-1,	-1,	31,	-1,	-1,	-1,	-1,	-1,	-1,	48,	49,	-1|
-1,	15,	46,	-1,	-1,	26,	-1,	-1,	-1,	-1,	13,	34,	-1,	-1,	43,	-1,	-1,	-1,	-1,	-1,	16,	-1,	-1,	40,	-1,	-1,	29,	31,	-1,	-1,	-1,	2,	49,	27,	6,	-1,	-1,	-1,	3,	-1,	-1,	-1,	7,	-1,	14,	23,	44,	-1,	-1|
39,	25,	22,	-1,	-1,	-1,	-1,	26,	5,	1,	46,	35,	-1,	31,	-1,	27,	-1,	40,	-1,	7,	-1,	-1,	-1,	-1,	8,	-1,	42,	-1,	-1,	-1,	-1,	32,	-1,	-1,	24,	-1,	-1,	34,	-1,	-1,	44,	-1,	-1,	-1,	9,	-1,	-1,	-1,	-1|
-1,	-1,	-1,	24,	6,	-1,	-1,	-1,	-1,	36,	49,	-1,	-1,	22,	-1,	47,	-1,	14,	-1,	-1,	-1,	-1,	21,	1,	-1,	33,	20,	-1,	-1,	-1,	7,	-1,	-1,	5,	17,	19,	-1,	45,	28,	-1,	-1,	-1,	-1,	31,	38,	-1,	-1,	32,	-1|
33,	35,	-1,	31,	44,	-1,	-1,	-1,	-1,	32,	-1,	-1,	38,	-1,	-1,	23,	-1,	-1,	10,	-1,	30,	-1,	-1,	-1,	-1,	16,	11,	-1,	48,	1,	-1,	-1,	3,	40,	15,	-1,	-1,	-1,	12,	-1,	-1,	-1,	-1,	-1,	-1,	5,	46,	-1,	-1|
-1,	-1,	-1,	-1,	-1,	10,	15,	-1,	1,	-1,	-1,	26,	-1,	-1,	-1,	-1,	-1,	-1,	39,	9,	-1,	7,	-1,	-1,	-1,	-1,	-1,	24,	42,	40,	-1,	-1,	-1,	16,	45,	-1,	25,	-1,	-1,	46,	2,	-1,	-1,	-1,	23,	13,	-1,	-1,	43|
49,	42,	-1,	-1,	-1,	30,	19,	-1,	7,	17,	-1,	-1,	-1,	-1,	46,	14,	33,	-1,	28,	-1,	-1,	-1,	-1,	-1,	-1,	-1,	39,	29,	-1,	-1,	-1,	-1,	-1,	13,	23,	-1,	-1,	-1,	-1,	-1,	-1,	-1,	-1,	-1,	-1,	-1,	-1,	4,	-1|
-1,	-1,	13,	-1,	-1,	32,	37,	-1,	38,	15,	-1,	-1,	16,	36,	-1,	40,	23,	-1,	25,	-1,	-1,	-1,	19,	6,	-1,	5,	-1,	2,	3,	-1,	-1,	-1,	-1,	24,	-1,	-1,	-1,	-1,	-1,	-1,	-1,	42,	33,	-1,	-1,	22,	27,	30,	46|
1,	24,	-1,	-1,	-1,	-1,	3,	-1,	-1,	-1,	-1,	39,	18,	-1,	-1,	-1,	42,	4,	30,	-1,	37,	10,	9,	43,	44,	47,	16,	33,	27,	-1,	-1,	-1,	21,	-1,	35,	-1,	-1,	13,	32,	-1,	20,	7,	25,	-1,	-1,	2,	19,	-1,	28|
-1,	45,	-1,	46,	26,	-1,	-1,	33,	21,	10,	3,	29,	-1,	-1,	5,	-1,	-1,	-1,	-1,	-1,	13,	-1,	31,	-1,	4,	-1,	-1,	-1,	2,	-1,	39,	-1,	38,	11,	-1,	-1,	37,	-1,	-1,	-1,	-1,	17,	6,	42,	-1,	12,	-1,	-1,	-1|
-1,	-1,	-1,	-1,	-1,	-1,	40,	23,	-1,	43,	-1,	19,	-1,	-1,	-1,	-1,	-1,	-1,	32,	16,	20,	28,	-1,	-1,	-1,	-1,	-1,	-1,	5,	30,	10,	-1,	-1,	-1,	31,	-1,	-1,	36,	1,	-1,	11,	-1,	-1,	39,	21,	3,	-1,	34,	-1|
-1,	-1,	-1,	-1,	-1,	-1,	-1,	-1,	-1,	-1,	24,	4,	30,	-1,	21,	-1,	-1,	-1,	-1,	-1,	10,	18,	45,	-1,	-1,	15,	-1,	-1,	32,	-1,	-1,	-1,	-1,	-1,	8,	-1,	-1,	3,	-1,	-1,	35,	14,	-1,	-1,	-1,	-1,	-1,	-1,	7|
46,	47,	18,	-1,	-1,	-1,	45,	-1,	-1,	16,	-1,	-1,	-1,	-1,	-1,	-1,	-1,	43,	27,	-1,	-1,	-1,	-1,	11,	-1,	3,	-1,	-1,	34,	-1,	-1,	30,	-1,	-1,	-1,	36,	6,	20,	31,	-1,	41,	-1,	13,	35,	49,	24,	29,	2,	-1|
-1,	-1,	15,	49,	29,	8,	-1,	-1,	45,	22,	-1,	-1,	-1,	-1,	-1,	-1,	-1,	-1,	-1,	-1,	47,	-1,	-1,	-1,	-1,	-1,	48,	-1,	-1,	-1,	-1,	3,	-1,	2,	-1,	-1,	-1,	23,	17,	-1,	-1,	-1,	-1,	-1,	-1,	-1,	6,	-1,	-1|
11,	5,	-1,	20,	-1,	-1,	36,	-1,	12,	8,	-1,	13,	1,	-1,	-1,	10,	-1,	-1,	-1,	17,	18,	-1,	30,	-1,	46,	39,	19,	-1,	29,	16,	-1,	-1,	-1,	-1,	28,	26,	22,	-1,	27,	-1,	-1,	45,	41,	-1,	-1,	-1,	34,	-1,	42|
-1,	-1,	-1,	44,	-1,	-1,	2,	-1,	26,	19,	18,	-1,	-1,	17,	-1,	24,	29,	25,	-1,	-1,	-1,	-1,	-1,	-1,	6,	32,	-1,	-1,	-1,	49,	-1,	-1,	-1,	36,	21,	9,	-1,	-1,	-1,	39,	-1,	35,	-1,	8,	-1,	-1,	5,	-1,	-1|
-1,	-1,	43,	41,	-1,	9,	-1,	-1,	42,	47,	-1,	-1,	-1,	7,	-1,	-1,	-1,	6,	1,	-1,	-1,	-1,	-1,	-1,	-1,	-1,	24,	-1,	-1,	-1,	-1,	39,	-1,	31,	-1,	37,	-1,	11,	-1,	15,	-1,	-1,	36,	-1,	-1,	-1,	30,	-1,	-1|
-1,	22,	25,	32,	4,	-1,	35,	29,	-1,	24,	-1,	49,	36,	3,	-1,	-1,	-1,	-1,	-1,	41,	7,	-1,	44,	14,	-1,	-1,	-1,	34,	-1,	-1,	45,	-1,	-1,	-1,	-1,	12,	-1,	-1,	-1,	21,	42,	13,	-1,	-1,	-1,	18,	31,	-1,	-1|
-1,	21,	39,	-1,	-1,	31,	-1,	-1,	-1,	35,	-1,	-1,	14,	43,	16,	37,	40,	-1,	-1,	-1,	-1,	29,	-1,	45,	-1,	41,	8,	7,	-1,	-1,	-1,	22,	33,	-1,	-1,	-1,	38,	-1,	-1,	-1,	10,	-1,	-1,	25,	-1,	-1,	-1,	20,	1|
-1,	26,	-1,	39,	-1,	-1,	42,	-1,	-1,	28,	30,	-1,	-1,	-1,	-1,	-1,	-1,	-1,	49,	-1,	-1,	-1,	-1,	-1,	-1,	12,	-1,	40,	-1,	35,	-1,	-1,	-1,	-1,	7,	-1,	-1,	-1,	44,	-1,	1,	15,	9,	32,	-1,	29,	3,	-1,	-1|
-1,	14,	8,	-1,	19,	-1,	47,	-1,	35,	49,	16,	3,	11,	-1,	-1,	-1,	-1,	-1,	43,	34,	-1,	-1,	-1,	-1,	25,	30,	-1,	17,	37,	-1,	26,	-1,	-1,	21,	-1,	-1,	-1,	-1,	-1,	-1,	-1,	-1,	46,	18,	-1,	-1,	-1,	-1,	-1|
44,	-1,	-1,	-1,	48,	-1,	-1,	-1,	-1,	5,	26,	18,	22,	9,	11,	-1,	-1,	-1,	-1,	30,	-1,	-1,	34,	-1,	23,	-1,	-1,	-1,	-1,	-1,	-1,	-1,	-1,	29,	-1,	13,	31,	-1,	49,	-1,	-1,	25,	-1,	-1,	24,	-1,	10,	17,	37|
15,	29,	31,	28,	-1,	-1,	25,	20,	-1,	-1,	-1,	-1,	17,	8,	48,	-1,	1,	-1,	-1,	18,	36,	-1,	7,	-1,	-1,	-1,	14,	11,	-1,	3,	-1,	12,	44,	-1,	-1,	10,	-1,	-1,	-1,	23,	-1,	-1,	-1,	-1,	-1,	30,	-1,	-1,	-1|
-1,	-1,	32,	16,	-1,	-1,	11,	-1,	-1,	40,	29,	-1,	-1,	-1,	7,	-1,	-1,	-1,	-1,	28,	-1,	15,	26,	10,	-1,	-1,	-1,	-1,	9,	-1,	41,	34,	-1,	22,	30,	-1,	-1,	-1,	-1,	-1,	-1,	38,	-1,	-1,	31,	21,	-1,	-1,	19|
-1,	-1,	-1,	40,	7,	-1,	-1,	24,	-1,	21,	14,	44,	-1,	-1,	9,	17,	32,	37,	-1,	42,	27,	-1,	-1,	38,	33,	-1,	-1,	28,	-1,	25,	-1,	45,	-1,	39,	-1,	29,	11,	-1,	-1,	-1,	18,	3,	35,	6,	-1,	20,	-1,	22,	49|
21,	30,	-1,	-1,	20,	-1,	-1,	-1,	-1,	37,	-1,	-1,	-1,	39,	6,	26,	2,	-1,	-1,	33,	-1,	4,	46,	18,	-1,	24,	-1,	-1,	-1,	42,	38,	-1,	8,	-1,	-1,	22,	-1,	16,	36,	-1,	19,	-1,	-1,	-1,	-1,	-1,	-1,	-1,	-1|
-1,	-1,	24,	25,	-1,	-1,	9,	30,	20,	6,	-1,	-1,	37,	-1,	22,	-1,	-1,	10,	40,	32,	-1,	14,	-1,	-1,	-1,	-1,	-1,	-1,	-1,	2,	3,	-1,	-1,	1,	43,	-1,	36,	-1,	-1,	-1,	-1,	-1,	-1,	48,	-1,	8,	-1,	-1,	-1|
-1,	11,	-1,	-1,	27,	-1,	-1,	-1,	-1,	-1,	39,	21,	49,	-1,	35,	12,	-1,	-1,	-1,	-1,	34,	-1,	10,	-1,	-1,	-1,	13,	-1,	-1,	-1,	-1,	44,	19,	26,	20,	-1,	42,	38,	37,	-1,	-1,	31,	-1,	45,	-1,	-1,	32,	-1,	-1|
30,	-1,	-1,	-1,	-1,	48,	-1,	-1,	-1,	-1,	-1,	43,	-1,	-1,	27,	-1,	-1,	20,	14,	-1,	-1,	-1,	32,	41,	-1,	-1,	-1,	-1,	21,	-1,	-1,	-1,	-1,	-1,	46,	11,	-1,	33,	-1,	-1,	-1,	40,	-1,	-1,	17,	-1,	-1,	-1,	-1|
18,	2,	33,	-1,	-1,	-1,	-1,	-1,	-1,	25,	-1,	-1,	-1,	-1,	-1,	-1,	-1,	-1,	-1,	-1,	38,	-1,	5,	-1,	-1,	-1,	43,	-1,	-1,	-1,	-1,	-1,	37,	4,	-1,	-1,	20,	-1,	-1,	-1,	-1,	12,	-1,	30,	27,	-1,	49,	-1,	-1|
12,	32,	28,	-1,	-1,	-1,	20,	-1,	-1,	-1,	2,	41,	-1,	34,	-1,	16,	43,	7,	-1,	-1,	-1,	37,	-1,	33,	-1,	8,	-1,	25,	-1,	-1,	27,	-1,	-1,	-1,	-1,	21,	10,	-1,	48,	1,	-1,	26,	18,	23,	-1,	-1,	-1,	11,	-1|
-1,	31,	-1,	-1,	8,	-1,	34,	-1,	18,	-1,	-1,	42,	40,	26,	-1,	-1,	-1,	-1,	5,	-1,	44,	-1,	2,	20,	-1,	-1,	-1,	-1,	45,	17,	11,	-1,	-1,	-1,	39,	-1,	19,	46,	-1,	43,	-1,	32,	24,	-1,	-1,	6,	-1,	16,	22|
-1,	-1,	44,	4,	45,	22,	-1,	-1,	-1,	-1,	-1,	-1,	48,	24,	-1,	-1,	-1,	-1,	29,	46,	-1,	23,	38,	-1,	47,	-1,	-1,	-1,	36,	12,	42,	-1,	-1,	33,	-1,	-1,	-1,	-1,	25,	-1,	-1,	2,	-1,	-1,	13,	-1,	20,	43,	-1|];
