sudoku-ls/benchmarks_LEQ/INST_49x49/40/inst49x49_40_65.txt
7
1
-1	-1	20	-1	-1	-1	6	-1	48	12	-1	17	-1	-1	-1	11	19	-1	-1	27	-1	-1	43	30	-1	-1	3	-1	38	-1	-1	-1	-1	-1	-1	-1	33	-1	-1	-1	26	44	37	-1	47	41	13	35	-1
-1	-1	14	33	-1	-1	-1	-1	-1	-1	-1	-1	31	-1	-1	-1	30	-1	-1	-1	-1	17	-1	35	-1	42	-1	-1	7	46	-1	-1	-1	25	-1	20	5	37	-1	-1	-1	-1	16	9	11	-1	-1	8	32
35	-1	-1	-1	-1	-1	-1	-1	-1	-1	-1	-1	-1	15	20	32	-1	24	17	-1	12	46	-1	-1	19	-1	-1	-1	-1	-1	43	-1	29	44	-1	25	13	1	16	-1	34	-1	-1	22	30	-1	-1	6	-1
-1	-1	-1	-1	23	-1	-1	47	-1	20	-1	-1	33	28	-1	43	49	-1	-1	-1	-1	-1	11	-1	38	-1	-1	9	-1	-1	5	-1	17	37	2	27	-1	-1	-1	-1	-1	10	-1	-1	-1	-1	7	1	40
19	28	48	-1	-1	-1	-1	-1	-1	-1	-1	25	-1	40	-1	-1	-1	13	-1	-1	6	34	-1	37	-1	-1	2	20	24	-1	35	-1	45	-1	16	-1	-1	4	-1	32	17	36	-1	27	-1	-1	14	-1	-1
-1	-1	-1	-1	-1	44	30	11	16	-1	5	-1	-1	35	-1	41	-1	36	8	-1	-1	-1	-1	4	-1	45	-1	-1	33	21	-1	-1	9	20	-1	-1	2	28	38	-1	-1	49	-1	3	-1	-1	-1	-1	-1
17	-1	37	12	34	-1	-1	-1	-1	41	-1	6	4	21	42	-1	-1	-1	-1	-1	33	22	-1	44	-1	-1	-1	27	-1	-1	-1	28	-1	-1	-1	-1	18	-1	47	35	-1	19	-1	-1	-1	48	39	-1	25
-1	-1	29	-1	17	-1	-1	41	-1	46	-1	-1	12	-1	-1	15	-1	-1	48	-1	-1	-1	-1	22	34	-1	18	-1	-1	-1	-1	-1	6	35	-1	-1	32	-1	-1	-1	-1	-1	23	-1	-1	-1	-1	-1	-1
-1	-1	1	-1	-1	25	26	35	11	-1	34	-1	-1	-1	-1	-1	6	-1	-1	-1	-1	12	-1	23	-1	44	-1	-1	-1	-1	-1	17	2	8	-1	28	39	-1	10	-1	-1	20	-1	14	37	-1	-1	-1	-1
13	-1	-1	15	-1	-1	22	4	6	26	-1	-1	-1	-1	-1	1	-1	-1	41	10	-1	-1	28	-1	-1	11	-1	-1	-1	45	-1	36	27	42	-1	-1	-1	-1	14	3	-1	47	48	24	-1	-1	-1	-1	38
36	-1	-1	42	-1	-1	-1	-1	24	-1	-1	-1	9	-1	-1	7	-1	-1	45	-1	28	-1	13	-1	-1	-1	-1	-1	-1	-1	-1	29	-1	-1	41	-1	-1	-1	5	8	15	-1	44	-1	34	1	22	-1	-1
48	12	45	27	-1	-1	-1	21	-1	-1	1	7	3	-1	-1	35	4	42	-1	-1	19	-1	-1	15	24	-1	47	-1	14	5	-1	23	-1	-1	-1	-1	-1	22	2	9	29	37	8	-1	-1	-1	26	39	36
-1	-1	-1	-1	21	-1	-1	-1	-1	-1	-1	16	-1	-1	8	-1	-1	44	-1	2	32	-1	-1	19	1	26	-1	-1	11	-1	-1	-1	-1	-1	-1	-1	48	-1	-1	-1	-1	23	-1	17	-1	-1	-1	-1	-1
10	-1	-1	34	37	-1	-1	-1	33	38	-1	-1	-1	-1	-1	29	27	5	-1	11	-1	3	-1	-1	-1	4	21	-1	-1	22	-1	-1	32	12	-1	-1	44	43	41	-1	-1	-1	-1	-1	35	-1	-1	-1	30
-1	38	-1	-1	-1	34	-1	14	28	-1	33	-1	-1	30	44	-1	-1	49	6	-1	-1	13	-1	39	-1	-1	-1	-1	-1	31	23	-1	41	10	47	17	-1	-1	-1	-1	4	46	-1	20	-1	-1	8	-1	27
40	-1	49	-1	28	20	-1	-1	39	-1	-1	-1	-1	-1	41	31	-1	-1	-1	-1	-1	-1	-1	34	-1	46	-1	-1	8	-1	-1	14	-1	-1	-1	-1	-1	10	22	-1	-1	-1	3	-1	-1	47	-1	12	-1
14	-1	-1	30	-1	-1	-1	-1	-1	44	7	8	-1	-1	-1	-1	46	32	-1	35	17	-1	-1	24	-1	37	-1	-1	-1	13	-1	-1	25	-1	-1	16	-1	-1	-1	-1	9	5	-1	-1	-1	-1	-1	-1	-1
-1	15	-1	-1	11	26	8	-1	-1	-1	13	34	-1	-1	43	20	-1	-1	-1	-1	-1	-1	25	40	-1	-1	-1	31	39	38	-1	-1	-1	27	-1	-1	24	18	3	-1	-1	21	-1	-1	14	-1	44	10	35
39	-1	-1	-1	13	45	4	-1	-1	-1	46	-1	-1	31	-1	-1	-1	40	-1	7	-1	-1	3	2	-1	-1	-1	49	-1	-1	29	32	30	18	-1	14	-1	34	-1	36	44	6	43	15	9	16	33	-1	-1
27	48	-1	-1	6	43	-1	-1	29	-1	-1	-1	-1	22	18	-1	11	14	-1	8	-1	44	-1	1	-1	-1	-1	10	-1	-1	7	-1	-1	-1	-1	-1	41	45	-1	-1	-1	39	-1	31	38	-1	4	-1	-1
33	-1	42	31	44	-1	-1	-1	-1	-1	-1	-1	-1	-1	45	-1	39	-1	10	-1	30	-1	-1	28	-1	-1	11	47	-1	1	-1	21	3	-1	15	-1	7	25	-1	-1	-1	-1	-1	19	-1	-1	-1	-1	-1
6	-1	4	-1	-1	10	-1	-1	-1	-1	20	26	-1	-1	-1	-1	35	18	-1	-1	-1	-1	-1	-1	-1	-1	-1	-1	42	-1	49	47	-1	-1	45	-1	25	-1	34	-1	-1	28	-1	37	-1	13	11	29	-1
49	-1	-1	21	18	-1	-1	-1	-1	-1	-1	-1	-1	-1	46	-1	-1	27	28	43	-1	-1	-1	-1	-1	34	-1	-1	6	-1	44	25	-1	-1	-1	-1	-1	26	24	10	-1	-1	31	16	1	45	-1	4	-1
-1	-1	-1	48	31	-1	-1	-1	38	-1	8	-1	16	36	-1	40	-1	-1	25	-1	-1	35	19	-1	20	-1	12	-1	-1	7	-1	4	-1	-1	-1	-1	-1	21	-1	-1	39	42	-1	-1	10	22	-1	-1	-1
-1	-1	-1	23	22	-1	-1	-1	-1	-1	-1	39	18	45	-1	-1	-1	-1	-1	-1	37	10	9	43	-1	47	-1	-1	-1	-1	-1	-1	21	41	35	38	15	13	32	6	-1	-1	-1	-1	48	2	-1	14	-1
-1	-1	35	-1	26	-1	-1	-1	-1	10	3	29	41	-1	5	-1	24	-1	-1	15	-1	40	31	49	-1	-1	-1	-1	-1	14	39	9	-1	-1	-1	-1	37	-1	-1	-1	-1	-1	-1	-1	-1	-1	-1	-1	8
2	-1	12	-1	-1	14	-1	23	-1	-1	-1	-1	-1	13	47	48	-1	-1	-1	16	20	-1	-1	42	-1	-1	26	8	-1	30	-1	33	-1	46	-1	-1	-1	-1	-1	-1	-1	9	-1	-1	21	3	35	-1	24
34	-1	-1	47	39	16	38	-1	-1	-1	24	-1	30	37	21	6	12	2	-1	-1	-1	18	-1	-1	-1	-1	-1	46	32	20	22	-1	48	28	-1	-1	-1	-1	23	-1	-1	-1	-1	41	-1	-1	40	9	7
46	47	-1	-1	12	-1	45	-1	-1	16	21	10	-1	-1	-1	-1	48	-1	27	-1	-1	-1	22	11	15	3	-1	-1	-1	-1	19	-1	42	-1	-1	36	-1	-1	31	-1	41	1	13	-1	49	24	-1	2	-1
7	-1	15	49	-1	8	-1	37	-1	-1	-1	-1	28	11	13	-1	-1	-1	-1	-1	-1	-1	-1	-1	-1	-1	-1	-1	43	-1	-1	-1	5	2	-1	-1	40	-1	-1	-1	46	-1	32	-1	-1	9	-1	-1	39
-1	-1	-1	-1	-1	-1	-1	40	12	8	23	-1	-1	33	-1	10	-1	-1	9	17	-1	21	30	-1	-1	39	-1	-1	-1	-1	-1	-1	-1	-1	28	-1	-1	2	-1	25	-1	45	41	43	-1	14	34	-1	-1
28	-1	-1	-1	14	-1	2	31	26	-1	-1	20	-1	17	33	24	29	-1	-1	38	-1	-1	-1	-1	6	-1	-1	-1	-1	-1	12	11	-1	-1	-1	9	34	-1	-1	-1	48	35	-1	8	-1	-1	5	37	-1
-1	-1	43	41	-1	-1	-1	-1	-1	-1	4	-1	44	-1	-1	-1	-1	6	-1	22	-1	-1	17	-1	26	-1	24	-1	20	-1	46	39	-1	-1	-1	-1	-1	-1	-1	15	16	-1	-1	-1	40	-1	30	19	-1
-1	-1	-1	32	-1	23	-1	29	9	24	48	-1	-1	3	-1	39	-1	46	11	41	-1	20	44	14	40	-1	33	-1	-1	-1	45	-1	-1	-1	27	-1	43	-1	-1	21	-1	-1	26	38	-1	18	-1	-1	-1
-1	21	-1	19	24	31	48	34	-1	-1	6	46	-1	-1	-1	-1	40	12	-1	-1	2	-1	-1	-1	-1	41	8	-1	26	15	13	22	33	-1	44	49	-1	-1	-1	-1	-1	-1	-1	-1	-1	17	-1	20	-1
38	-1	-1	-1	5	-1	42	45	-1	28	30	-1	34	-1	-1	-1	-1	21	-1	25	-1	31	-1	16	43	-1	-1	-1	-1	35	-1	13	11	-1	-1	-1	-1	-1	-1	-1	-1	15	-1	32	-1	29	-1	27	-1
22	14	-1	-1	-1	-1	47	-1	-1	49	-1	-1	-1	12	-1	44	10	-1	43	-1	-1	2	-1	9	-1	-1	-1	17	37	6	26	27	31	21	-1	-1	28	-1	-1	-1	-1	-1	-1	-1	-1	-1	-1	48	-1
-1	3	36	-1	-1	-1	27	-1	-1	-1	-1	-1	-1	-1	-1	-1	38	-1	-1	30	-1	-1	-1	21	23	19	-1	-1	-1	-1	-1	-1	20	29	14	13	-1	39	-1	12	-1	25	28	-1	-1	-1	10	17	37
-1	29	-1	-1	-1	-1	-1	-1	13	-1	-1	-1	17	-1	48	22	-1	41	47	-1	36	39	-1	5	-1	-1	14	11	46	-1	-1	12	44	-1	32	-1	-1	27	9	-1	-1	34	-1	-1	26	-1	-1	-1	-1
-1	37	-1	-1	43	18	-1	48	-1	40	-1	-1	25	-1	7	-1	-1	-1	-1	-1	14	-1	26	-1	-1	-1	49	42	9	-1	41	-1	36	22	30	-1	-1	-1	-1	17	33	38	-1	44	31	-1	-1	-1	19
-1	-1	-1	-1	7	12	-1	-1	-1	21	14	44	19	10	9	-1	-1	37	-1	-1	27	-1	-1	-1	33	-1	36	-1	1	25	-1	-1	16	-1	-1	-1	-1	-1	-1	48	-1	-1	35	6	43	-1	-1	-1	-1
21	-1	9	-1	-1	1	-1	-1	-1	37	-1	31	7	39	-1	26	-1	29	-1	-1	-1	-1	-1	18	-1	24	-1	-1	28	-1	38	-1	8	17	49	-1	35	16	-1	47	-1	43	-1	-1	41	-1	-1	-1	-1
-1	-1	-1	25	42	-1	9	-1	20	-1	-1	-1	37	-1	-1	-1	-1	10	40	-1	26	14	-1	17	12	-1	-1	-1	-1	-1	3	41	-1	-1	43	-1	-1	-1	-1	-1	-1	-1	5	-1	-1	8	-1	-1	-1
-1	-1	7	29	-1	15	5	36	17	-1	-1	-1	49	-1	-1	-1	8	1	23	-1	-1	-1	-1	-1	18	40	-1	3	-1	9	25	-1	-1	-1	20	6	42	-1	37	-1	22	31	-1	45	2	33	-1	-1	41
30	19	26	-1	-1	-1	-1	5	3	-1	-1	-1	-1	44	-1	-1	-1	-1	-1	-1	-1	-1	-1	-1	-1	-1	-1	22	-1	24	8	-1	-1	-1	46	11	-1	-1	18	-1	-1	-1	-1	-1	17	-1	-1	25	-1
-1	-1	-1	14	-1	-1	17	-1	8	-1	-1	-1	-1	29	28	-1	-1	15	13	19	-1	11	5	36	39	48	-1	21	-1	32	-1	10	-1	-1	-1	47	-1	44	-1	-1	-1	12	1	-1	-1	-1	49	-1	-1
-1	32	28	-1	3	47	-1	-1	19	-1	-1	41	-1	-1	-1	-1	-1	-1	4	36	-1	-1	15	-1	-1	-1	-1	-1	-1	-1	27	-1	-1	-1	-1	-1	-1	17	-1	1	-1	-1	18	23	44	-1	42	11	9
-1	31	-1	-1	8	-1	-1	1	18	33	-1	-1	-1	26	-1	-1	25	3	5	-1	-1	-1	-1	20	-1	-1	4	-1	45	-1	-1	48	-1	-1	-1	15	19	46	-1	-1	-1	32	-1	7	29	-1	-1	16	-1
-1	-1	-1	-1	-1	-1	-1	-1	32	27	10	-1	-1	-1	17	-1	-1	-1	29	-1	-1	23	-1	-1	47	1	6	19	36	-1	-1	-1	-1	-1	-1	3	-1	41	-1	-1	-1	2	34	40	13	-1	20	-1	14
49 
36 41 8 36
34 26 43 30
37 12 42 25
16 33 1 2
15 20 22 36
16 14 42 15
14 24 47 18
40 38 7 2
46 12 29 22
19 13 45 43
11 6 37 13
30 44 20 12
4 6 6 28
30 31 14 15
17 38 20 21
11 5 46 29
21 11 28 27
14 32 21 7
9 38 14 3
40 26 17 32
11 44 22 25
9 12 6 40
16 37 23 35
31 32 7 23
30 22 26 14
14 40 24 20
25 29 45 15
24 8 8 11
6 21 27 37
22 27 9 25
27 35 39 3
18 41 15 27
10 35 23 17
43 27 29 29
33 33 31 18
1 35 22 2
10 11 29 27
49 23 3 12
14 23 37 45
38 21 6 20
5 23 22 21
19 27 6 43
39 11 7 41
38 1 5 11
3 4 35 24
38 16 32 46
19 37 38 31
36 34 11 24
5 25 2 32
